Running for instance ./models/r104.txt
Generating routes...
Execution time:  0.14046  minutes
Academic license - for non-commercial use only
Warning: constraint name "Cliente esta na rota" has a space
Optimize a model with 26 rows, 5000 columns and 31898 nonzeros
Variable types: 0 continuous, 5000 integer (0 binary)
Coefficient statistics:
  Matrix range     [1e+00, 1e+00]
  Objective range  [5e+01, 2e+02]
  Bounds range     [1e+00, 1e+00]
  RHS range        [1e+00, 2e+01]
Found heuristic solution: objective 1000.4259177
Presolve removed 0 rows and 2135 columns
Presolve time: 0.03s
Presolved: 26 rows, 2865 columns, 18584 nonzeros
Found heuristic solution: objective 828.5870148
Variable types: 0 continuous, 2865 integer (2865 binary)

Root relaxation: objective 4.869397e+02, 86 iterations, 0.00 seconds

    Nodes    |    Current Node    |     Objective Bounds      |     Work
 Expl Unexpl |  Obj  Depth IntInf | Incumbent    BestBd   Gap | It/Node Time

     0     0  486.93969    0   23  828.58701  486.93969  41.2%     -    0s
H    0     0                     531.1214654  486.93969  8.32%     -    0s
H    0     0                     496.0349742  486.93969  1.83%     -    0s
H    0     0                     492.1269264  486.93969  1.05%     -    0s
     0     0  488.45953    0   25  492.12693  488.45953  0.75%     -    0s

Cutting planes:
  MIR: 1
  Zero half: 1

Explored 1 nodes (99 simplex iterations) in 0.06 seconds
Thread count was 8 (of 8 available processors)

Solution count 5: 492.127 496.035 531.121 ... 852.044

Optimal solution found (tolerance 1.00e-04)
Best objective 4.921269263684e+02, best bound 4.921269263684e+02, gap 0.0000%
3 9 24
7 10 11 19 20 1
2 22 23 4
14 15
18 8 17 16 5
Distance: 492.126926368
Execution time:  0.146862816667  minutes
